200 200
13 9
22 7
22 64
11 12
35 11
36 14
21 55
18 116
22 56
10 60
12 75
5 1
30 42
16 68
7 20
13 6
4 14
9 35
11 21
41 27
16 41
7 11
31 20
8 2
4 18
4 25
10 2
12 27
23 25
27 94
8 46
29 16
35 7
12 7
7 11
4 24
47 12
6 20
34 102
23 49
28 15
13 34
50 24
13 10
37 29
14 11
12 8
8 3
4 11
22 8
14 10
6 5
27 8
4 5
2 10
33 7
18 5
8 11
4 4
11 7
5 21
14 6
18 15
5 9
28 5
20 21
13 4
15 7
18 3
56 9
14 4
4 25
56 19
16 14
13 56
7 2
2 4
7 22
5 3
2 2
4 1
65 17
7 33
7 21
11 12
6 1
55 15
8 5
3 15
6 22
2 10
5 12
110 16
24 35
19 21
36 12
47 9
